70
1 0 2
2 0 4
2 1 3
3 0 4
3 1 4
3 2 1
4 0 1
4 1 6
4 2 1
4 3 3
5 0 2
5 1 8
5 2 4
5 3 5
5 4 7
6 0 1
6 1 4
6 2 5
6 3 5
6 4 6
6 5 1
7 0 3
7 1 2
7 2 7
7 3 2
7 4 1
7 5 7
7 6 2
8 0 1
8 1 3
8 2 7
8 3 5
8 4 5
8 5 2
8 6 7
8 7 4
9 0 3
9 1 4
9 2 4
9 3 1
9 4 4
9 5 4
9 6 5
9 7 4
9 8 1
10 0 1
10 1 3
10 2 4
10 3 1
10 4 6
10 5 4
10 6 1
10 7 2
10 8 6
10 9 8
11 0 7
11 1 8
11 2 7
11 3 7
11 4 7
11 5 4
11 6 1
11 7 2
11 8 7
11 9 4
11 10 1
12 0 1
12 1 2
12 2 4
12 3 4
12 4 1
12 5 6
12 6 4
12 7 6
12 8 4
12 9 7
12 10 4
12 11 1
13 0 1
13 1 5
13 2 4
13 3 1
13 4 8
13 5 3
13 6 7
13 7 1
13 8 2
13 9 6
13 10 3
13 11 1
13 12 7
14 0 4
14 1 3
14 2 1
14 3 4
14 4 4
14 5 5
14 6 3
14 7 7
14 8 2
14 9 2
14 10 8
14 11 8
14 12 2
14 13 8
15 0 3
15 1 3
15 2 5
15 3 2
15 4 7
15 5 4
15 6 5
15 7 8
15 8 2
15 9 1
15 10 2
15 11 5
15 12 1
15 13 2
15 14 5
16 0 6
16 1 2
16 2 5
16 3 8
16 4 5
16 5 6
16 6 1
16 7 1
16 8 7
16 9 5
16 10 1
16 11 8
16 12 2
16 13 7
16 14 3
16 15 2
17 0 5
17 1 7
17 2 2
17 3 6
17 4 1
17 5 5
17 6 8
17 7 3
17 8 4
17 9 5
17 10 2
17 11 7
17 12 7
17 13 1
17 14 2
17 15 1
17 16 3
18 0 7
18 1 4
18 2 7
18 3 5
18 4 6
18 5 1
18 6 2
18 7 7
18 8 2
18 9 2
18 10 2
18 11 2
18 12 3
18 13 2
18 14 6
18 15 4
18 16 6
18 17 5
19 0 6
19 1 2
19 2 7
19 3 4
19 4 7
19 5 2
19 6 8
19 7 8
19 8 4
19 9 4
19 10 5
19 11 5
19 12 7
19 13 7
19 14 6
19 15 8
19 16 5
19 17 7
19 18 8
20 0 3
20 1 8
20 2 8
20 3 6
20 4 7
20 5 5
20 6 4
20 7 6
20 8 8
20 9 4
20 10 3
20 11 4
20 12 4
20 13 2
20 14 7
20 15 7
20 16 6
20 17 7
20 18 2
20 19 1
21 0 8
21 1 7
21 2 6
21 3 3
21 4 4
21 5 2
21 6 3
21 7 7
21 8 7
21 9 7
21 10 4
21 11 4
21 12 7
21 13 6
21 14 6
21 15 1
21 16 3
21 17 6
21 18 5
21 19 7
21 20 2
22 0 3
22 1 2
22 2 6
22 3 1
22 4 2
22 5 1
22 6 5
22 7 7
22 8 8
22 9 7
22 10 2
22 11 7
22 12 3
22 13 8
22 14 1
22 15 5
22 16 1
22 17 3
22 18 5
22 19 5
22 20 8
22 21 1
23 0 2
23 1 5
23 2 7
23 3 8
23 4 5
23 5 2
23 6 6
23 7 7
23 8 5
23 9 7
23 10 1
23 11 5
23 12 5
23 13 6
23 14 7
23 15 1
23 16 3
23 17 3
23 18 4
23 19 4
23 20 7
23 21 1
23 22 6
24 0 1
24 1 1
24 2 5
24 3 8
24 4 5
24 5 3
24 6 3
24 7 4
24 8 7
24 9 5
24 10 4
24 11 7
24 12 6
24 13 4
24 14 8
24 15 6
24 16 6
24 17 7
24 18 6
24 19 2
24 20 5
24 21 2
24 22 8
24 23 3
25 0 5
25 1 3
25 2 2
25 3 2
25 4 7
25 5 7
25 6 3
25 7 3
25 8 2
25 9 6
25 10 5
25 11 7
25 12 5
25 13 8
25 14 4
25 15 1
25 16 7
25 17 3
25 18 2
25 19 3
25 20 4
25 21 1
25 22 6
25 23 2
25 24 7
26 0 4
26 1 6
26 2 4
26 3 3
26 4 3
26 5 1
26 6 5
26 7 2
26 8 8
26 9 4
26 10 5
26 11 6
26 12 3
26 13 3
26 14 5
26 15 6
26 16 6
26 17 8
26 18 7
26 19 6
26 20 6
26 21 4
26 22 7
26 23 4
26 24 1
26 25 2
27 0 5
27 1 3
27 2 7
27 3 2
27 4 4
27 5 3
27 6 2
27 7 7
27 8 5
27 9 1
27 10 1
27 11 7
27 12 5
27 13 2
27 14 5
27 15 6
27 16 3
27 17 7
27 18 6
27 19 3
27 20 3
27 21 7
27 22 7
27 23 6
27 24 4
27 25 4
27 26 2
28 0 2
28 1 6
28 2 2
28 3 2
28 4 3
28 5 5
28 6 4
28 7 6
28 8 7
28 9 6
28 10 6
28 11 6
28 12 6
28 13 4
28 14 5
28 15 2
28 16 8
28 17 7
28 18 3
28 19 3
28 20 8
28 21 5
28 22 6
28 23 2
28 24 1
28 25 3
28 26 2
28 27 6
29 0 1
29 1 4
29 2 7
29 3 8
29 4 8
29 5 6
29 6 6
29 7 7
29 8 1
29 9 3
29 10 8
29 11 7
29 12 6
29 13 7
29 14 2
29 15 8
29 16 7
29 17 7
29 18 1
29 19 5
29 20 7
29 21 1
29 22 6
29 23 3
29 24 6
29 25 4
29 26 1
29 27 3
29 28 7
30 0 5
30 1 8
30 2 8
30 3 4
30 4 6
30 5 8
30 6 7
30 7 1
30 8 5
30 9 1
30 10 1
30 11 3
30 12 1
30 13 5
30 14 4
30 15 7
30 16 8
30 17 4
30 18 1
30 19 2
30 20 1
30 21 7
30 22 5
30 23 5
30 24 8
30 25 7
30 26 1
30 27 1
30 28 4
30 29 6
31 0 8
31 1 3
31 2 5
31 3 3
31 4 7
31 5 2
31 6 5
31 7 3
31 8 5
31 9 8
31 10 8
31 11 6
31 12 8
31 13 2
31 14 4
31 15 8
31 16 8
31 17 1
31 18 1
31 19 8
31 20 8
31 21 3
31 22 1
31 23 3
31 24 6
31 25 6
31 26 7
31 27 4
31 28 2
31 29 8
31 30 8
32 0 6
32 1 3
32 2 2
32 3 2
32 4 1
32 5 4
32 6 7
32 7 8
32 8 5
32 9 5
32 10 2
32 11 2
32 12 2
32 13 5
32 14 3
32 15 2
32 16 7
32 17 6
32 18 2
32 19 4
32 20 7
32 21 5
32 22 4
32 23 7
32 24 1
32 25 5
32 26 3
32 27 5
32 28 4
32 29 2
32 30 1
32 31 2
33 0 8
33 1 7
33 2 5
33 3 5
33 4 8
33 5 5
33 6 6
33 7 8
33 8 8
33 9 3
33 10 7
33 11 8
33 12 1
33 13 2
33 14 1
33 15 5
33 16 8
33 17 8
33 18 8
33 19 1
33 20 1
33 21 7
33 22 7
33 23 2
33 24 6
33 25 3
33 26 6
33 27 2
33 28 8
33 29 3
33 30 6
33 31 6
33 32 4
34 0 6
34 1 5
34 2 8
34 3 5
34 4 3
34 5 1
34 6 7
34 7 1
34 8 6
34 9 4
34 10 7
34 11 3
34 12 2
34 13 1
34 14 2
34 15 8
34 16 6
34 17 5
34 18 1
34 19 5
34 20 8
34 21 2
34 22 1
34 23 2
34 24 7
34 25 5
34 26 8
34 27 6
34 28 1
34 29 3
34 30 1
34 31 1
34 32 5
34 33 3
35 0 4
35 1 7
35 2 2
35 3 6
35 4 2
35 5 1
35 6 4
35 7 3
35 8 3
35 9 3
35 10 1
35 11 7
35 12 3
35 13 2
35 14 5
35 15 8
35 16 8
35 17 3
35 18 2
35 19 4
35 20 8
35 21 8
35 22 7
35 23 4
35 24 3
35 25 4
35 26 3
35 27 2
35 28 1
35 29 2
35 30 6
35 31 4
35 32 4
35 33 2
35 34 1
36 0 3
36 1 1
36 2 7
36 3 6
36 4 4
36 5 6
36 6 6
36 7 2
36 8 7
36 9 5
36 10 6
36 11 1
36 12 5
36 13 2
36 14 1
36 15 1
36 16 4
36 17 2
36 18 4
36 19 5
36 20 5
36 21 3
36 22 1
36 23 6
36 24 6
36 25 7
36 26 8
36 27 3
36 28 2
36 29 7
36 30 8
36 31 3
36 32 7
36 33 2
36 34 7
36 35 8
37 0 3
37 1 2
37 2 4
37 3 7
37 4 1
37 5 6
37 6 2
37 7 6
37 8 2
37 9 5
37 10 2
37 11 5
37 12 2
37 13 6
37 14 1
37 15 4
37 16 3
37 17 5
37 18 4
37 19 3
37 20 3
37 21 7
37 22 8
37 23 1
37 24 5
37 25 6
37 26 2
37 27 8
37 28 5
37 29 4
37 30 3
37 31 8
37 32 5
37 33 8
37 34 5
37 35 6
37 36 4
38 0 7
38 1 8
38 2 8
38 3 6
38 4 5
38 5 5
38 6 8
38 7 3
38 8 7
38 9 5
38 10 3
38 11 7
38 12 1
38 13 6
38 14 7
38 15 7
38 16 2
38 17 4
38 18 5
38 19 7
38 20 3
38 21 3
38 22 3
38 23 6
38 24 6
38 25 4
38 26 6
38 27 7
38 28 6
38 29 3
38 30 5
38 31 3
38 32 7
38 33 2
38 34 3
38 35 8
38 36 8
38 37 8
39 0 1
39 1 4
39 2 6
39 3 3
39 4 7
39 5 1
39 6 4
39 7 1
39 8 7
39 9 1
39 10 1
39 11 7
39 12 6
39 13 5
39 14 8
39 15 4
39 16 7
39 17 1
39 18 4
39 19 3
39 20 5
39 21 2
39 22 4
39 23 4
39 24 4
39 25 4
39 26 7
39 27 2
39 28 4
39 29 1
39 30 5
39 31 2
39 32 4
39 33 1
39 34 2
39 35 4
39 36 5
39 37 6
39 38 3
40 0 3
40 1 8
40 2 5
40 3 8
40 4 8
40 5 8
40 6 5
40 7 1
40 8 8
40 9 4
40 10 8
40 11 7
40 12 8
40 13 5
40 14 4
40 15 6
40 16 2
40 17 8
40 18 2
40 19 6
40 20 7
40 21 2
40 22 5
40 23 7
40 24 5
40 25 2
40 26 6
40 27 8
40 28 7
40 29 5
40 30 1
40 31 6
40 32 4
40 33 1
40 34 7
40 35 3
40 36 6
40 37 8
40 38 3
40 39 5
41 0 4
41 1 8
41 2 6
41 3 1
41 4 4
41 5 8
41 6 1
41 7 8
41 8 1
41 9 7
41 10 7
41 11 3
41 12 5
41 13 5
41 14 1
41 15 8
41 16 5
41 17 6
41 18 1
41 19 4
41 20 1
41 21 8
41 22 6
41 23 7
41 24 6
41 25 8
41 26 2
41 27 6
41 28 1
41 29 6
41 30 3
41 31 8
41 32 7
41 33 2
41 34 4
41 35 2
41 36 1
41 37 4
41 38 8
41 39 2
41 40 4
42 0 5
42 1 3
42 2 8
42 3 2
42 4 4
42 5 7
42 6 3
42 7 1
42 8 7
42 9 8
42 10 3
42 11 8
42 12 7
42 13 8
42 14 5
42 15 5
42 16 6
42 17 5
42 18 4
42 19 8
42 20 2
42 21 8
42 22 4
42 23 1
42 24 7
42 25 3
42 26 8
42 27 1
42 28 1
42 29 1
42 30 1
42 31 2
42 32 3
42 33 3
42 34 6
42 35 4
42 36 5
42 37 7
42 38 8
42 39 5
42 40 7
42 41 3
43 0 2
43 1 2
43 2 4
43 3 2
43 4 1
43 5 3
43 6 5
43 7 2
43 8 8
43 9 4
43 10 7
43 11 3
43 12 6
43 13 2
43 14 7
43 15 3
43 16 7
43 17 5
43 18 8
43 19 2
43 20 5
43 21 6
43 22 5
43 23 5
43 24 8
43 25 8
43 26 2
43 27 8
43 28 2
43 29 8
43 30 1
43 31 6
43 32 4
43 33 2
43 34 5
43 35 2
43 36 3
43 37 4
43 38 5
43 39 1
43 40 1
43 41 1
43 42 5
44 0 6
44 1 2
44 2 8
44 3 7
44 4 8
44 5 8
44 6 4
44 7 2
44 8 6
44 9 3
44 10 7
44 11 7
44 12 7
44 13 7
44 14 7
44 15 6
44 16 2
44 17 3
44 18 5
44 19 7
44 20 5
44 21 3
44 22 2
44 23 2
44 24 6
44 25 6
44 26 2
44 27 5
44 28 4
44 29 2
44 30 2
44 31 4
44 32 7
44 33 5
44 34 2
44 35 3
44 36 5
44 37 6
44 38 1
44 39 1
44 40 4
44 41 6
44 42 5
44 43 3
45 0 6
45 1 4
45 2 2
45 3 6
45 4 5
45 5 2
45 6 8
45 7 6
45 8 5
45 9 6
45 10 1
45 11 4
45 12 6
45 13 4
45 14 2
45 15 6
45 16 8
45 17 6
45 18 7
45 19 1
45 20 6
45 21 1
45 22 2
45 23 4
45 24 5
45 25 1
45 26 6
45 27 3
45 28 2
45 29 7
45 30 1
45 31 1
45 32 4
45 33 4
45 34 3
45 35 3
45 36 2
45 37 3
45 38 7
45 39 7
45 40 1
45 41 1
45 42 2
45 43 4
45 44 6
46 0 6
46 1 3
46 2 6
46 3 2
46 4 8
46 5 5
46 6 2
46 7 6
46 8 7
46 9 8
46 10 2
46 11 2
46 12 8
46 13 8
46 14 1
46 15 3
46 16 5
46 17 8
46 18 1
46 19 7
46 20 4
46 21 4
46 22 1
46 23 4
46 24 2
46 25 8
46 26 4
46 27 5
46 28 3
46 29 4
46 30 5
46 31 6
46 32 3
46 33 4
46 34 7
46 35 8
46 36 6
46 37 1
46 38 4
46 39 6
46 40 4
46 41 2
46 42 6
46 43 7
46 44 8
46 45 7
47 0 4
47 1 5
47 2 8
47 3 4
47 4 6
47 5 3
47 6 8
47 7 6
47 8 7
47 9 6
47 10 4
47 11 3
47 12 3
47 13 1
47 14 6
47 15 7
47 16 7
47 17 6
47 18 7
47 19 4
47 20 6
47 21 1
47 22 2
47 23 8
47 24 6
47 25 2
47 26 2
47 27 8
47 28 5
47 29 1
47 30 4
47 31 5
47 32 7
47 33 6
47 34 5
47 35 8
47 36 8
47 37 7
47 38 6
47 39 8
47 40 5
47 41 2
47 42 1
47 43 3
47 44 8
47 45 5
47 46 1
48 0 8
48 1 1
48 2 1
48 3 4
48 4 2
48 5 8
48 6 1
48 7 5
48 8 3
48 9 4
48 10 2
48 11 6
48 12 4
48 13 2
48 14 5
48 15 7
48 16 7
48 17 4
48 18 5
48 19 5
48 20 4
48 21 1
48 22 5
48 23 3
48 24 5
48 25 5
48 26 3
48 27 1
48 28 8
48 29 4
48 30 3
48 31 1
48 32 3
48 33 7
48 34 3
48 35 8
48 36 7
48 37 4
48 38 6
48 39 2
48 40 2
48 41 2
48 42 5
48 43 2
48 44 3
48 45 4
48 46 2
48 47 3
49 0 1
49 1 5
49 2 4
49 3 6
49 4 8
49 5 7
49 6 8
49 7 6
49 8 1
49 9 6
49 10 4
49 11 5
49 12 7
49 13 7
49 14 1
49 15 7
49 16 5
49 17 5
49 18 4
49 19 5
49 20 8
49 21 1
49 22 7
49 23 4
49 24 7
49 25 2
49 26 1
49 27 6
49 28 4
49 29 8
49 30 5
49 31 4
49 32 2
49 33 3
49 34 8
49 35 4
49 36 6
49 37 1
49 38 5
49 39 8
49 40 6
49 41 3
49 42 6
49 43 5
49 44 3
49 45 2
49 46 3
49 47 2
49 48 3
50 0 5
50 1 8
50 2 4
50 3 8
50 4 5
50 5 5
50 6 2
50 7 2
50 8 2
50 9 5
50 10 1
50 11 5
50 12 1
50 13 3
50 14 6
50 15 5
50 16 2
50 17 1
50 18 8
50 19 1
50 20 1
50 21 3
50 22 5
50 23 8
50 24 8
50 25 5
50 26 3
50 27 3
50 28 3
50 29 4
50 30 1
50 31 2
50 32 3
50 33 6
50 34 5
50 35 3
50 36 6
50 37 8
50 38 5
50 39 4
50 40 3
50 41 1
50 42 5
50 43 5
50 44 3
50 45 5
50 46 8
50 47 6
50 48 6
50 49 8
51 0 4
51 1 2
51 2 6
51 3 5
51 4 4
51 5 7
51 6 3
51 7 1
51 8 2
51 9 8
51 10 4
51 11 3
51 12 3
51 13 5
51 14 1
51 15 4
51 16 3
51 17 5
51 18 8
51 19 8
51 20 1
51 21 2
51 22 4
51 23 4
51 24 8
51 25 1
51 26 6
51 27 3
51 28 8
51 29 7
51 30 6
51 31 1
51 32 8
51 33 3
51 34 2
51 35 2
51 36 8
51 37 1
51 38 5
51 39 7
51 40 8
51 41 8
51 42 6
51 43 5
51 44 3
51 45 2
51 46 5
51 47 3
51 48 8
51 49 8
51 50 2
52 0 4
52 1 8
52 2 8
52 3 4
52 4 3
52 5 4
52 6 6
52 7 3
52 8 2
52 9 3
52 10 6
52 11 4
52 12 6
52 13 2
52 14 1
52 15 3
52 16 3
52 17 6
52 18 4
52 19 5
52 20 3
52 21 4
52 22 8
52 23 3
52 24 3
52 25 1
52 26 8
52 27 5
52 28 1
52 29 8
52 30 4
52 31 3
52 32 8
52 33 6
52 34 5
52 35 7
52 36 2
52 37 4
52 38 3
52 39 7
52 40 8
52 41 7
52 42 7
52 43 6
52 44 3
52 45 4
52 46 1
52 47 8
52 48 8
52 49 4
52 50 6
52 51 4
53 0 4
53 1 3
53 2 3
53 3 1
53 4 1
53 5 4
53 6 7
53 7 1
53 8 1
53 9 2
53 10 4
53 11 2
53 12 7
53 13 6
53 14 7
53 15 8
53 16 1
53 17 6
53 18 1
53 19 4
53 20 8
53 21 6
53 22 6
53 23 3
53 24 2
53 25 7
53 26 3
53 27 3
53 28 7
53 29 3
53 30 3
53 31 6
53 32 2
53 33 4
53 34 6
53 35 1
53 36 6
53 37 3
53 38 3
53 39 5
53 40 6
53 41 6
53 42 1
53 43 4
53 44 5
53 45 8
53 46 1
53 47 1
53 48 6
53 49 8
53 50 8
53 51 7
53 52 8
54 0 8
54 1 8
54 2 3
54 3 2
54 4 5
54 5 5
54 6 5
54 7 1
54 8 8
54 9 1
54 10 8
54 11 5
54 12 1
54 13 2
54 14 5
54 15 4
54 16 4
54 17 3
54 18 1
54 19 6
54 20 7
54 21 8
54 22 6
54 23 7
54 24 4
54 25 1
54 26 8
54 27 6
54 28 2
54 29 7
54 30 2
54 31 6
54 32 2
54 33 6
54 34 8
54 35 8
54 36 6
54 37 5
54 38 8
54 39 2
54 40 4
54 41 2
54 42 4
54 43 3
54 44 5
54 45 6
54 46 6
54 47 2
54 48 2
54 49 7
54 50 6
54 51 8
54 52 8
54 53 8
55 0 1
55 1 6
55 2 6
55 3 6
55 4 6
55 5 8
55 6 7
55 7 4
55 8 7
55 9 8
55 10 3
55 11 7
55 12 1
55 13 7
55 14 8
55 15 7
55 16 3
55 17 2
55 18 4
55 19 4
55 20 8
55 21 2
55 22 6
55 23 8
55 24 8
55 25 5
55 26 8
55 27 2
55 28 7
55 29 2
55 30 4
55 31 1
55 32 5
55 33 4
55 34 4
55 35 7
55 36 4
55 37 6
55 38 5
55 39 2
55 40 2
55 41 6
55 42 7
55 43 8
55 44 7
55 45 5
55 46 7
55 47 4
55 48 7
55 49 8
55 50 3
55 51 4
55 52 6
55 53 4
55 54 8
56 0 7
56 1 4
56 2 5
56 3 3
56 4 5
56 5 7
56 6 3
56 7 4
56 8 5
56 9 2
56 10 7
56 11 3
56 12 4
56 13 8
56 14 1
56 15 6
56 16 4
56 17 2
56 18 6
56 19 4
56 20 6
56 21 7
56 22 2
56 23 4
56 24 2
56 25 6
56 26 6
56 27 8
56 28 2
56 29 2
56 30 2
56 31 8
56 32 6
56 33 1
56 34 4
56 35 4
56 36 2
56 37 1
56 38 8
56 39 8
56 40 7
56 41 7
56 42 2
56 43 1
56 44 5
56 45 4
56 46 6
56 47 2
56 48 5
56 49 3
56 50 5
56 51 1
56 52 8
56 53 5
56 54 1
56 55 3
57 0 5
57 1 4
57 2 7
57 3 3
57 4 8
57 5 4
57 6 7
57 7 8
57 8 5
57 9 6
57 10 7
57 11 2
57 12 8
57 13 8
57 14 5
57 15 7
57 16 2
57 17 4
57 18 3
57 19 6
57 20 8
57 21 7
57 22 6
57 23 3
57 24 6
57 25 2
57 26 6
57 27 5
57 28 1
57 29 8
57 30 1
57 31 4
57 32 1
57 33 6
57 34 4
57 35 1
57 36 3
57 37 5
57 38 3
57 39 3
57 40 3
57 41 6
57 42 4
57 43 2
57 44 7
57 45 4
57 46 2
57 47 1
57 48 6
57 49 3
57 50 6
57 51 2
57 52 7
57 53 3
57 54 5
57 55 3
57 56 2
58 0 3
58 1 7
58 2 8
58 3 1
58 4 5
58 5 6
58 6 7
58 7 1
58 8 4
58 9 5
58 10 6
58 11 2
58 12 5
58 13 8
58 14 5
58 15 8
58 16 6
58 17 2
58 18 7
58 19 2
58 20 4
58 21 4
58 22 6
58 23 2
58 24 6
58 25 6
58 26 8
58 27 5
58 28 4
58 29 1
58 30 1
58 31 8
58 32 7
58 33 5
58 34 1
58 35 6
58 36 2
58 37 6
58 38 3
58 39 4
58 40 2
58 41 1
58 42 8
58 43 3
58 44 8
58 45 3
58 46 2
58 47 8
58 48 1
58 49 7
58 50 3
58 51 1
58 52 1
58 53 4
58 54 8
58 55 4
58 56 1
58 57 2
59 0 1
59 1 6
59 2 7
59 3 2
59 4 4
59 5 5
59 6 4
59 7 7
59 8 6
59 9 4
59 10 3
59 11 7
59 12 1
59 13 8
59 14 6
59 15 4
59 16 6
59 17 7
59 18 4
59 19 8
59 20 1
59 21 3
59 22 5
59 23 1
59 24 7
59 25 1
59 26 5
59 27 6
59 28 2
59 29 5
59 30 6
59 31 1
59 32 6
59 33 4
59 34 3
59 35 8
59 36 8
59 37 8
59 38 3
59 39 6
59 40 3
59 41 6
59 42 8
59 43 6
59 44 1
59 45 6
59 46 6
59 47 6
59 48 4
59 49 3
59 50 2
59 51 7
59 52 4
59 53 7
59 54 7
59 55 4
59 56 4
59 57 8
59 58 8
60 0 7
60 1 3
60 2 4
60 3 7
60 4 1
60 5 5
60 6 8
60 7 8
60 8 5
60 9 4
60 10 1
60 11 5
60 12 8
60 13 6
60 14 7
60 15 1
60 16 3
60 17 5
60 18 4
60 19 2
60 20 2
60 21 5
60 22 4
60 23 7
60 24 2
60 25 5
60 26 3
60 27 1
60 28 1
60 29 4
60 30 8
60 31 1
60 32 8
60 33 2
60 34 7
60 35 3
60 36 2
60 37 2
60 38 4
60 39 2
60 40 8
60 41 6
60 42 6
60 43 1
60 44 7
60 45 7
60 46 8
60 47 8
60 48 6
60 49 1
60 50 2
60 51 7
60 52 8
60 53 4
60 54 4
60 55 5
60 56 1
60 57 2
60 58 5
60 59 3
61 0 8
61 1 3
61 2 3
61 3 5
61 4 1
61 5 6
61 6 4
61 7 7
61 8 1
61 9 5
61 10 4
61 11 8
61 12 1
61 13 4
61 14 1
61 15 2
61 16 4
61 17 3
61 18 5
61 19 3
61 20 3
61 21 5
61 22 3
61 23 4
61 24 2
61 25 6
61 26 5
61 27 2
61 28 5
61 29 2
61 30 7
61 31 4
61 32 2
61 33 6
61 34 6
61 35 6
61 36 1
61 37 6
61 38 6
61 39 4
61 40 8
61 41 5
61 42 2
61 43 4
61 44 3
61 45 8
61 46 7
61 47 5
61 48 2
61 49 8
61 50 1
61 51 2
61 52 8
61 53 7
61 54 8
61 55 3
61 56 2
61 57 5
61 58 8
61 59 8
61 60 6
62 0 2
62 1 1
62 2 4
62 3 6
62 4 4
62 5 4
62 6 3
62 7 1
62 8 8
62 9 3
62 10 7
62 11 2
62 12 7
62 13 3
62 14 6
62 15 8
62 16 4
62 17 4
62 18 6
62 19 5
62 20 8
62 21 8
62 22 1
62 23 8
62 24 2
62 25 8
62 26 6
62 27 3
62 28 1
62 29 7
62 30 5
62 31 1
62 32 8
62 33 2
62 34 1
62 35 4
62 36 7
62 37 1
62 38 4
62 39 7
62 40 8
62 41 3
62 42 6
62 43 1
62 44 8
62 45 1
62 46 2
62 47 6
62 48 6
62 49 4
62 50 2
62 51 2
62 52 4
62 53 4
62 54 4
62 55 6
62 56 4
62 57 5
62 58 3
62 59 2
62 60 3
62 61 2
63 0 7
63 1 8
63 2 7
63 3 7
63 4 5
63 5 6
63 6 6
63 7 6
63 8 1
63 9 6
63 10 7
63 11 2
63 12 7
63 13 7
63 14 3
63 15 7
63 16 1
63 17 7
63 18 1
63 19 4
63 20 6
63 21 7
63 22 8
63 23 7
63 24 6
63 25 7
63 26 5
63 27 3
63 28 3
63 29 2
63 30 2
63 31 7
63 32 5
63 33 4
63 34 8
63 35 6
63 36 7
63 37 8
63 38 2
63 39 3
63 40 6
63 41 8
63 42 3
63 43 4
63 44 2
63 45 8
63 46 4
63 47 1
63 48 4
63 49 7
63 50 1
63 51 6
63 52 2
63 53 1
63 54 5
63 55 6
63 56 4
63 57 3
63 58 2
63 59 2
63 60 2
63 61 4
63 62 6
64 0 1
64 1 1
64 2 7
64 3 3
64 4 2
64 5 4
64 6 6
64 7 3
64 8 4
64 9 4
64 10 2
64 11 4
64 12 4
64 13 5
64 14 8
64 15 2
64 16 6
64 17 3
64 18 3
64 19 8
64 20 1
64 21 7
64 22 2
64 23 6
64 24 5
64 25 2
64 26 7
64 27 5
64 28 3
64 29 8
64 30 7
64 31 3
64 32 8
64 33 3
64 34 6
64 35 2
64 36 4
64 37 8
64 38 3
64 39 5
64 40 2
64 41 5
64 42 3
64 43 1
64 44 2
64 45 5
64 46 6
64 47 8
64 48 2
64 49 1
64 50 5
64 51 7
64 52 3
64 53 8
64 54 4
64 55 2
64 56 1
64 57 8
64 58 1
64 59 6
64 60 1
64 61 5
64 62 1
64 63 3
65 0 1
65 1 3
65 2 4
65 3 3
65 4 1
65 5 7
65 6 2
65 7 8
65 8 2
65 9 1
65 10 1
65 11 6
65 12 1
65 13 4
65 14 3
65 15 3
65 16 4
65 17 1
65 18 3
65 19 1
65 20 6
65 21 7
65 22 8
65 23 7
65 24 5
65 25 6
65 26 2
65 27 8
65 28 3
65 29 3
65 30 1
65 31 3
65 32 8
65 33 6
65 34 1
65 35 6
65 36 2
65 37 2
65 38 3
65 39 8
65 40 2
65 41 7
65 42 7
65 43 5
65 44 8
65 45 6
65 46 6
65 47 3
65 48 7
65 49 7
65 50 7
65 51 1
65 52 6
65 53 7
65 54 3
65 55 6
65 56 6
65 57 7
65 58 6
65 59 1
65 60 5
65 61 3
65 62 4
65 63 6
65 64 8
66 0 7
66 1 7
66 2 8
66 3 5
66 4 5
66 5 3
66 6 2
66 7 4
66 8 6
66 9 6
66 10 7
66 11 4
66 12 1
66 13 6
66 14 7
66 15 5
66 16 2
66 17 6
66 18 4
66 19 4
66 20 6
66 21 1
66 22 6
66 23 8
66 24 2
66 25 2
66 26 3
66 27 5
66 28 7
66 29 1
66 30 6
66 31 2
66 32 6
66 33 4
66 34 4
66 35 7
66 36 4
66 37 5
66 38 5
66 39 3
66 40 1
66 41 3
66 42 6
66 43 7
66 44 4
66 45 7
66 46 2
66 47 4
66 48 8
66 49 8
66 50 2
66 51 8
66 52 5
66 53 1
66 54 8
66 55 4
66 56 3
66 57 7
66 58 6
66 59 3
66 60 6
66 61 1
66 62 5
66 63 3
66 64 1
66 65 7
67 0 6
67 1 2
67 2 2
67 3 8
67 4 3
67 5 2
67 6 2
67 7 6
67 8 8
67 9 2
67 10 6
67 11 4
67 12 3
67 13 8
67 14 2
67 15 6
67 16 5
67 17 6
67 18 5
67 19 6
67 20 1
67 21 8
67 22 6
67 23 4
67 24 8
67 25 6
67 26 5
67 27 6
67 28 8
67 29 3
67 30 4
67 31 8
67 32 3
67 33 6
67 34 2
67 35 4
67 36 2
67 37 3
67 38 5
67 39 5
67 40 7
67 41 2
67 42 5
67 43 6
67 44 4
67 45 8
67 46 7
67 47 8
67 48 8
67 49 2
67 50 7
67 51 7
67 52 4
67 53 3
67 54 3
67 55 1
67 56 2
67 57 1
67 58 7
67 59 3
67 60 8
67 61 7
67 62 4
67 63 1
67 64 7
67 65 5
67 66 2
68 0 5
68 1 4
68 2 2
68 3 1
68 4 4
68 5 5
68 6 6
68 7 1
68 8 1
68 9 8
68 10 5
68 11 3
68 12 3
68 13 7
68 14 6
68 15 5
68 16 8
68 17 3
68 18 2
68 19 8
68 20 8
68 21 2
68 22 3
68 23 4
68 24 4
68 25 6
68 26 6
68 27 3
68 28 3
68 29 3
68 30 1
68 31 1
68 32 1
68 33 5
68 34 5
68 35 2
68 36 5
68 37 7
68 38 6
68 39 1
68 40 2
68 41 5
68 42 3
68 43 5
68 44 6
68 45 8
68 46 6
68 47 7
68 48 6
68 49 2
68 50 8
68 51 8
68 52 4
68 53 7
68 54 5
68 55 5
68 56 1
68 57 8
68 58 1
68 59 6
68 60 3
68 61 6
68 62 1
68 63 7
68 64 5
68 65 4
68 66 3
68 67 4
69 0 7
69 1 1
69 2 5
69 3 3
69 4 5
69 5 8
69 6 6
69 7 6
69 8 2
69 9 3
69 10 1
69 11 2
69 12 7
69 13 2
69 14 6
69 15 8
69 16 8
69 17 2
69 18 4
69 19 1
69 20 2
69 21 4
69 22 1
69 23 2
69 24 2
69 25 3
69 26 1
69 27 2
69 28 8
69 29 8
69 30 7
69 31 4
69 32 3
69 33 5
69 34 5
69 35 7
69 36 6
69 37 8
69 38 6
69 39 2
69 40 3
69 41 3
69 42 7
69 43 1
69 44 6
69 45 5
69 46 1
69 47 1
69 48 1
69 49 7
69 50 2
69 51 6
69 52 6
69 53 7
69 54 7
69 55 4
69 56 2
69 57 4
69 58 6
69 59 3
69 60 8
69 61 1
69 62 7
69 63 1
69 64 8
69 65 8
69 66 7
69 67 2
69 68 1
